[2026-03-23T17:00:37.860Z] Pipeline "set_ds_1_ds_1_s009_g001" → 2026_03_23_17_00_37_set_ds_1_ds_1_s009_g001_max.sol
Set parameter WLSAccessID
Set parameter WLSSecret
Set parameter LicenseID to value 2792458
Set parameter LogFile to value "gurobi.log"
Using license file /root/gurobi.lic
Academic license 2792458 - for non-commercial use only - registered to an___@studenti.unipg.it

Gurobi Optimizer version 13.0.1 build v13.0.1rc0 (linux64 - "Ubuntu 24.04.4 LTS")
Copyright (c) 2026, Gurobi Optimization, LLC

Warning: Duplicate section found (read 'binary') - Is a variable name equal to an LP file format keyword?
Warning: Duplicate section found (read 'binary') - Is a variable name equal to an LP file format keyword?
Warning: Duplicate section found (read 'binary') - Is a variable name equal to an LP file format keyword?
Warning: Duplicate section found (read 'binary') - Is a variable name equal to an LP file format keyword?
Warning: Duplicate section found (read 'binary') - Is a variable name equal to an LP file format keyword?
Warning: Duplicate section found (read 'binary') - Is a variable name equal to an LP file format keyword?
Warning: Duplicate section found (read 'binary') - Is a variable name equal to an LP file format keyword?
Warning: Duplicate section found (read 'binary') - Is a variable name equal to an LP file format keyword?
Warning: Duplicate section found (read 'binary') - Is a variable name equal to an LP file format keyword?
Warning: Duplicate section found (read 'binary') - Is a variable name equal to an LP file format keyword?
Warning: Further warnings of this type will be omitted.
Read LP format model from file /root/bgw/data/uploads/2026_03_23_17_00_37_set_ds_1_ds_1_s009_g001_max.lp
Reading time = 0.00 seconds
: 2656 rows, 317 columns, 7712 nonzeros

Using Gurobi shared library /opt/gurobi1301/linux64/lib/libgurobi.so.13.0.1

CPU model: AMD EPYC-Genoa Processor, instruction set [SSE2|AVX|AVX2|AVX512]
Thread count: 16 physical cores, 16 logical processors, using up to 16 threads

Academic license 2792458 - for non-commercial use only - registered to an___@studenti.unipg.it
Optimize a model with 2656 rows, 317 columns and 7712 nonzeros (Max)
Model fingerprint: 0xc0a1bd42
Model has 43 linear objective coefficients
Variable types: 62 continuous, 255 integer (255 binary)
Coefficient statistics:
  Matrix range     [1e+00, 2e+01]
  Objective range  [1e+00, 1e+00]
  Bounds range     [1e+00, 1e+00]
  RHS range        [1e+00, 2e+01]

Found heuristic solution: objective 43.0000000
Presolve removed 656 rows and 110 columns
Presolve time: 0.01s
Presolved: 2000 rows, 207 columns, 6160 nonzeros
Variable types: 0 continuous, 207 integer (197 binary)
Found heuristic solution: objective 62.0000000

Root relaxation: objective 2.250000e+02, 293 iterations, 0.02 seconds (0.01 work units)

    Nodes    |    Current Node    |     Objective Bounds      |     Work
 Expl Unexpl |  Obj  Depth IntInf | Incumbent    BestBd   Gap | It/Node Time

     0     0  225.00000    0   51   62.00000  225.00000   263%     -    0s
H    0     0                      66.0000000  225.00000   241%     -    0s
H    0     0                     101.0000000  225.00000   123%     -    0s
     0     0  225.00000    0   51  101.00000  225.00000   123%     -    0s
H    0     0                     106.0000000  225.00000   112%     -    0s
H    0     0                     108.0000000  225.00000   108%     -    0s
     0     0  225.00000    0   67  108.00000  225.00000   108%     -    0s
     0     0  225.00000    0   50  108.00000  225.00000   108%     -    0s
     0     0  225.00000    0   50  108.00000  225.00000   108%     -    0s
     0     0  225.00000    0   50  108.00000  225.00000   108%     -    0s
     0     0  225.00000    0   52  108.00000  225.00000   108%     -    0s
     0     0  225.00000    0   51  108.00000  225.00000   108%     -    0s
     0     0  225.00000    0   51  108.00000  225.00000   108%     -    0s
     0     0  225.00000    0   51  108.00000  225.00000   108%     -    0s
     0     0  225.00000    0   51  108.00000  225.00000   108%     -    0s
     0     0  225.00000    0   49  108.00000  225.00000   108%     -    0s
     0     0  225.00000    0   49  108.00000  225.00000   108%     -    0s
     0     0  225.00000    0   49  108.00000  225.00000   108%     -    0s
     0     0  225.00000    0   49  108.00000  225.00000   108%     -    0s
     0     2  225.00000    0   49  108.00000  225.00000   108%     -    0s
H  113   115                     111.0000000  224.47059   102%  59.0    0s
H 5419  1818                     112.0000000  213.83987  90.9%  52.9    3s
 13242  3436  113.00000   37   17  112.00000  179.00000  59.8%  46.9    5s
 42217  9056  139.88235   30   29  112.00000  150.29412  34.2%  44.6   10s
 78129 11606  119.35294   41   24  112.00000  139.73725  24.8%  45.4   15s
 114315 10219 infeasible   36       112.00000  132.11765  18.0%  45.7   20s
 149415  5840  119.58824   38   23  112.00000  124.82353  11.4%  46.6   25s

Cutting planes:
  Inf proof: 3

Explored 169545 nodes (8020220 simplex iterations) in 27.56 seconds (44.03 work units)
Thread count was 16 (of 16 available processors)

Solution count 10: 112 111 111 ... 62

Optimal solution found (tolerance 1.00e-04)
Best objective 1.120000000000e+02, best bound 1.120000000000e+02, gap 0.0000%

Wrote result file '/root/bgw/data/results/2026_03_23_17_00_37_set_ds_1_ds_1_s009_g001_max.sol'

